
  22    4
  10   10   10   10

   0   0   0   0   0   9 2 4 5 7 8 9 14 15 16 
   1  10  10  10  10   1 3 
   8  10  10  10  10   6 21 20 18 13 12 10 
   2  10  10  10  10   6 21 20 19 18 13 11 
   4  10  10  10  10   3 20 10 6 
   3  10  10  10  10   4 19 18 13 12 
   4  10  10  10  10   3 18 13 12 
   6  10  10  10  10   2 20 12 
   8  10  10  10  10   2 13 12 
   5  10  10  10  10   2 19 17 
   9  10  10  10  10   1 12 
  10  10  10  10  10   1 17 
   1  10  10  10  10   1 17 
  10  10  10  10  10   1 17 
   6  10  10  10  10   1 17 
  10  10  10  10  10   1 17 
   1  10  10  10  10   1 22
   3  10  10  10  10   1 22
   5  10  10  10  10   1 22
   7  10  10  10  10   1 22
   2  10  10  10  10   1 22
   0   0   0   0   0   0 
